nK = 528;
nT = 4;
nI = 7;
L = 35;
TT = 127;
np = 1;
nc = 3;
b = [61, 61, 60, 40, 46, 43, 27];
d = [140, 149, 115, 81, 100, 135, 93];
m = [2.5, 1, 2, 1.7, 1.5, 2.5, 1.5];
pt = [0.26, 0.24, 0.26, 0.22];
st = [11.44, 9.6, 15.34, 10.78];
arc = {<1, 0, 1, 1, 0, 0, 0, [1, 1, 1, 1]>, <2, 1, 2, 1, 0, 0, 0, [1, 1, 1, 1]>, <3, 2, 3, 1, 0, 0, 0, [1, 1, 1, 1]>, <4, 3, 4, 1, 0, 0, 0, [1, 1, 1, 1]>, <5, 4, 5, 1, 0, 0, 0, [1, 1, 1, 1]>, <6, 5, 6, 1, 0, 0, 0, [1, 1, 1, 1]>, <7, 6, 7, 1, 0, 0, 0, [1, 1, 1, 1]>, <8, 7, 8, 1, 0, 0, 0, [1, 1, 1, 1]>, <9, 8, 9, 1, 0, 0, 0, [1, 1, 1, 1]>, <10, 9, 10, 1, 0, 0, 0, [1, 1, 1, 1]>, <11, 10, 11, 1, 0, 0, 0, [1, 1, 1, 1]>, <12, 11, 12, 1, 0, 0, 0, [1, 1, 1, 1]>, <13, 12, 13, 1, 0, 0, 0, [1, 1, 1, 1]>, <14, 13, 14, 1, 0, 0, 0, [1, 1, 1, 1]>, <15, 14, 15, 1, 0, 0, 0, [1, 1, 1, 1]>, <16, 15, 16, 1, 0, 0, 0, [1, 1, 1, 1]>, <17, 16, 17, 1, 0, 0, 0, [1, 1, 1, 1]>, <18, 17, 18, 1, 0, 0, 0, [1, 1, 1, 1]>, <19, 18, 19, 1, 0, 0, 0, [1, 1, 1, 1]>, <20, 19, 20, 1, 0, 0, 0, [1, 1, 1, 1]>, <21, 20, 21, 1, 0, 0, 0, [1, 1, 1, 1]>, <22, 21, 22, 1, 0, 0, 0, [1, 1, 1, 1]>, <23, 22, 23, 1, 0, 0, 0, [1, 1, 1, 1]>, <24, 23, 24, 1, 0, 0, 0, [1, 1, 1, 1]>, <25, 24, 25, 1, 0, 0, 0, [1, 1, 1, 1]>, <26, 25, 26, 1, 0, 0, 0, [1, 1, 1, 1]>, <27, 26, 27, 1, 0, 0, 0, [1, 1, 1, 1]>, <28, 27, 28, 1, 0, 0, 0, [1, 1, 1, 1]>, <29, 28, 29, 1, 0, 0, 0, [1, 1, 1, 1]>, <30, 29, 30, 1, 0, 0, 0, [1, 1, 1, 1]>, <31, 30, 31, 1, 0, 0, 0, [1, 1, 1, 1]>, <32, 31, 32, 1, 0, 0, 0, [1, 1, 1, 1]>, <33, 32, 33, 1, 0, 0, 0, [1, 1, 1, 1]>, <34, 33, 34, 1, 0, 0, 0, [1, 1, 1, 1]>, <35, 34, 35, 1, 0, 0, 0, [1, 1, 1, 1]>, <36, 5, 14, 9, 1, 0, 0, [1, 1, 0, 0]>, <37, 6, 15, 9, 1, 0, 0, [1, 1, 0, 0]>, <38, 14, 23, 9, 1, 0, 0, [1, 1, 0, 0]>, <39, 15, 24, 9, 1, 0, 0, [1, 1, 0, 0]>, <40, 22, 31, 9, 1, 0, 0, [1, 1, 0, 0]>, <41, 23, 32, 9, 1, 0, 0, [1, 1, 0, 0]>, <42, 24, 33, 9, 1, 0, 0, [1, 1, 0, 0]>, <43, 4, 17, 13, 2, 0, 1, [0, 0, 1, 1]>, <44, 5, 18, 13, 2, 0, 1, [0, 0, 1, 1]>, <45, 6, 19, 13, 2, 0, 1, [0, 0, 1, 1]>, <46, 13, 26, 13, 2, 0, 1, [0, 0, 1, 1]>, <47, 14, 27, 13, 2, 0, 1, [0, 0, 1, 1]>, <48, 15, 28, 13, 2, 0, 1, [0, 0, 1, 1]>, <49, 18, 31, 13, 2, 0, 1, [0, 0, 1, 1]>, <50, 19, 32, 13, 2, 0, 1, [0, 0, 1, 1]>, <51, 20, 33, 13, 2, 0, 1, [0, 0, 1, 1]>, <52, 21, 34, 13, 2, 0, 1, [0, 0, 1, 1]>, <53, 22, 35, 13, 2, 0, 1, [0, 0, 1, 1]>, <54, 5, 15, 10, 3, 0, 1, [0, 0, 1, 1]>, <55, 6, 16, 10, 3, 0, 1, [0, 0, 1, 1]>, <56, 14, 24, 10, 3, 0, 1, [0, 0, 1, 1]>, <57, 15, 25, 10, 3, 0, 1, [0, 0, 1, 1]>, <58, 21, 31, 10, 3, 0, 1, [0, 0, 1, 1]>, <59, 22, 32, 10, 3, 0, 1, [0, 0, 1, 1]>, <60, 23, 33, 10, 3, 0, 1, [0, 0, 1, 1]>, <61, 24, 34, 10, 3, 0, 1, [0, 0, 1, 1]>, <62, 5, 14, 9, 4, 1, 0, [0, 0, 1, 1]>, <63, 6, 15, 9, 4, 1, 0, [0, 0, 1, 1]>, <64, 14, 23, 9, 4, 1, 0, [0, 0, 1, 1]>, <65, 15, 24, 9, 4, 1, 0, [0, 0, 1, 1]>, <66, 22, 31, 9, 4, 1, 0, [0, 0, 1, 1]>, <67, 23, 32, 9, 4, 1, 0, [0, 0, 1, 1]>, <68, 24, 33, 9, 4, 1, 0, [0, 0, 1, 1]>, <69, 3, 17, 14, 5, 0, 1, [1, 0, 0, 1]>, <70, 4, 18, 14, 5, 0, 1, [1, 0, 0, 1]>, <71, 5, 19, 14, 5, 0, 1, [1, 0, 0, 1]>, <72, 6, 20, 14, 5, 0, 1, [1, 0, 0, 1]>, <73, 12, 26, 14, 5, 0, 1, [1, 0, 0, 1]>, <74, 13, 27, 14, 5, 0, 1, [1, 0, 0, 1]>, <75, 14, 28, 14, 5, 0, 1, [1, 0, 0, 1]>, <76, 15, 29, 14, 5, 0, 1, [1, 0, 0, 1]>, <77, 17, 31, 14, 5, 0, 1, [1, 0, 0, 1]>, <78, 18, 32, 14, 5, 0, 1, [1, 0, 0, 1]>, <79, 19, 33, 14, 5, 0, 1, [1, 0, 0, 1]>, <80, 20, 34, 14, 5, 0, 1, [1, 0, 0, 1]>, <81, 21, 35, 14, 5, 0, 1, [1, 0, 0, 1]>, <82, 4, 17, 13, 6, 1, 0, [1, 1, 0, 0]>, <83, 5, 18, 13, 6, 1, 0, [1, 1, 0, 0]>, <84, 6, 19, 13, 6, 1, 0, [1, 1, 0, 0]>, <85, 13, 26, 13, 6, 1, 0, [1, 1, 0, 0]>, <86, 14, 27, 13, 6, 1, 0, [1, 1, 0, 0]>, <87, 15, 28, 13, 6, 1, 0, [1, 1, 0, 0]>, <88, 18, 31, 13, 6, 1, 0, [1, 1, 0, 0]>, <89, 19, 32, 13, 6, 1, 0, [1, 1, 0, 0]>, <90, 20, 33, 13, 6, 1, 0, [1, 1, 0, 0]>, <91, 21, 34, 13, 6, 1, 0, [1, 1, 0, 0]>, <92, 22, 35, 13, 6, 1, 0, [1, 1, 0, 0]>, <93, 5, 14, 9, 7, 0, 1, [0, 0, 1, 1]>, <94, 6, 15, 9, 7, 0, 1, [0, 0, 1, 1]>, <95, 14, 23, 9, 7, 0, 1, [0, 0, 1, 1]>, <96, 15, 24, 9, 7, 0, 1, [0, 0, 1, 1]>, <97, 22, 31, 9, 7, 0, 1, [0, 0, 1, 1]>, <98, 23, 32, 9, 7, 0, 1, [0, 0, 1, 1]>, <99, 24, 33, 9, 7, 0, 1, [0, 0, 1, 1]>};
